(set-option :produce-models true); benchmark generated from python API
(set-info :status unknown)
(declare-fun l_0_0_7 () Real)
(declare-fun l_0_0_1 () Real)
(declare-fun _a_0_ () Real)
(declare-fun l_0_0_5 () Real)
(declare-fun l_0_0_3 () Real)
(declare-fun l_0_0_4 () Real)
(declare-fun l_0_0_2 () Real)
(declare-fun l_0_0_9 () Real)
(declare-fun l_0_0_11 () Real)
(declare-fun l_0_0_8 () Real)
(declare-fun l_0_0_10 () Real)
(declare-fun _a_1_ () Real)
(declare-fun _a_2_ () Real)
(declare-fun l_0_0_6 () Real)
(declare-fun l_0_0_12 () Real)
(declare-fun _a_3_ () Real)
(declare-fun _a_4_ () Real)
(declare-fun _a_5_ () Real)
(declare-fun l_0_1_7 () Real)
(declare-fun l_0_1_13 () Real)
(declare-fun l_0_1_1 () Real)
(declare-fun l_0_1_9 () Real)
(declare-fun l_0_1_8 () Real)
(declare-fun l_0_1_15 () Real)
(declare-fun l_0_1_14 () Real)
(declare-fun l_0_1_2 () Real)
(declare-fun l_0_1_3 () Real)
(declare-fun l_0_1_16 () Real)
(declare-fun l_0_1_10 () Real)
(declare-fun l_0_1_4 () Real)
(declare-fun l_0_1_17 () Real)
(declare-fun l_0_1_11 () Real)
(declare-fun l_0_1_5 () Real)
(declare-fun l_0_1_18 () Real)
(declare-fun l_0_1_12 () Real)
(declare-fun l_0_1_6 () Real)
(declare-fun l_0_2_7 () Real)
(declare-fun l_0_2_13 () Real)
(declare-fun l_0_2_1 () Real)
(declare-fun l_0_2_17 () Real)
(declare-fun l_0_2_15 () Real)
(declare-fun l_0_2_16 () Real)
(declare-fun l_0_2_14 () Real)
(declare-fun l_0_2_9 () Real)
(declare-fun l_0_2_11 () Real)
(declare-fun l_0_2_8 () Real)
(declare-fun l_0_2_10 () Real)
(declare-fun l_0_2_2 () Real)
(declare-fun l_0_2_4 () Real)
(declare-fun l_0_2_5 () Real)
(declare-fun l_0_2_3 () Real)
(declare-fun l_0_2_12 () Real)
(declare-fun l_0_2_6 () Real)
(declare-fun l_0_2_18 () Real)
(assert
 (let ((?x63 (* l_0_0_7 l_0_0_7)))
 (let ((?x59 (* l_0_0_1 l_0_0_1)))
 (let ((?x61 (* 3.0 ?x59)))
 (let ((?x62 (+ _a_0_ ?x61)))
 (= (- ?x62 ?x63) 0.0))))))
(assert
 (let ((?x97 (- (- _a_1_ (* (* 8.0 l_0_0_1) l_0_0_4)) (* (* 2.0 l_0_0_10) l_0_0_8))))
 (let ((?x104 (+ (- ?x97 (* (* 2.0 l_0_0_11) l_0_0_9)) (* (* 6.0 l_0_0_2) l_0_0_4))))
 (= (+ ?x104 (* (* 6.0 l_0_0_3) l_0_0_5)) 0.0))))
(assert
 (let ((?x146 (* l_0_0_9 l_0_0_9)))
 (let ((?x144 (* l_0_0_8 l_0_0_8)))
 (let ((?x141 (* l_0_0_3 l_0_0_3)))
 (let ((?x142 (* 3.0 ?x141)))
 (let ((?x138 (* l_0_0_2 l_0_0_2)))
 (let ((?x139 (* 3.0 ?x138)))
 (let ((?x59 (* l_0_0_1 l_0_0_1)))
 (let ((?x143 (+ (+ (+ (- _a_2_ (* (* 8.0 l_0_0_1) l_0_0_2)) ?x59) ?x139) ?x142)))
 (= (- (- ?x143 ?x144) ?x146) 0.0))))))))))
(assert
 (let ((?x176 (* l_0_0_6 l_0_0_6)))
 (let ((?x177 (* 3.0 ?x176)))
 (let ((?x173 (* l_0_0_5 l_0_0_5)))
 (let ((?x174 (* 3.0 ?x173)))
 (let ((?x170 (* l_0_0_4 l_0_0_4)))
 (let ((?x171 (* 3.0 ?x170)))
 (let ((?x168 (* l_0_0_12 l_0_0_12)))
 (let ((?x166 (* l_0_0_11 l_0_0_11)))
 (let ((?x167 (- (- (+ _a_3_ (* l_0_0_1 l_0_0_1)) (* l_0_0_10 l_0_0_10)) ?x166)))
 (= (+ (+ (+ (- ?x167 ?x168) ?x171) ?x174) ?x177) 0.0)))))))))))
(assert
 (let ((?x197 (- (+ _a_4_ (* (* 6.0 l_0_0_1) l_0_0_2)) (* (* 4.0 l_0_0_1) l_0_0_1))))
 (= (- ?x197 (* (* 2.0 l_0_0_7) l_0_0_8)) 0.0)))
(assert
 (let ((?x220 (- (+ _a_5_ (* (* 6.0 l_0_0_1) l_0_0_4)) (* (* 2.0 l_0_0_10) l_0_0_7))))
 (= ?x220 0.0)))
(assert
 (let ((?x231 (* 2.0 l_0_0_1)))
 (let ((?x232 (* ?x231 l_0_0_2)))
 (let ((?x238 (- (- ?x232 (* (* 4.0 l_0_0_4) l_0_0_4)) (* (* 4.0 l_0_0_5) l_0_0_5))))
 (= (- ?x238 (* (* 4.0 l_0_0_6) l_0_0_6)) 0.0)))))
(assert
 (let ((?x231 (* 2.0 l_0_0_1)))
 (let ((?x260 (* ?x231 l_0_0_4)))
 (= ?x260 0.0))))
(assert
 (let ((?x176 (* l_0_0_6 l_0_0_6)))
 (let ((?x173 (* l_0_0_5 l_0_0_5)))
 (let ((?x170 (* l_0_0_4 l_0_0_4)))
 (let ((?x141 (* l_0_0_3 l_0_0_3)))
 (let ((?x138 (* l_0_0_2 l_0_0_2)))
 (let ((?x262 (+ ?x138 ?x141)))
 (= (+ (+ (+ ?x262 ?x170) ?x173) ?x176) 0.0))))))))
(assert
 (let ((?x274 (+ (* (* 2.0 l_0_0_2) l_0_0_4) (* (* 2.0 l_0_0_3) l_0_0_5))))
 (= ?x274 0.0)))
(assert
 (let ((?x176 (* l_0_0_6 l_0_0_6)))
 (= (+ (+ (* l_0_0_4 l_0_0_4) (* l_0_0_5 l_0_0_5)) ?x176) 0.0)))
(assert
 (let ((?x231 (* 2.0 l_0_0_1)))
 (let ((?x232 (* ?x231 l_0_0_2)))
 (let ((?x290 (- (- ?x232 (* (* 4.0 l_0_0_2) l_0_0_2)) (* (* 4.0 l_0_0_3) l_0_0_3))))
 (= ?x290 0.0)))))
(assert
 (let ((?x231 (* 2.0 l_0_0_1)))
 (let ((?x260 (* ?x231 l_0_0_4)))
 (let ((?x310 (- (- ?x260 (* (* 8.0 l_0_0_2) l_0_0_4)) (* (* 8.0 l_0_0_3) l_0_0_5))))
 (= ?x310 0.0)))))
(assert
 (let ((?x141 (* l_0_0_3 l_0_0_3)))
 (let ((?x138 (* l_0_0_2 l_0_0_2)))
 (let ((?x262 (+ ?x138 ?x141)))
 (= ?x262 0.0)))))
(assert
 (let ((?x274 (+ (* (* 2.0 l_0_0_2) l_0_0_4) (* (* 2.0 l_0_0_3) l_0_0_5))))
 (= ?x274 0.0)))
(assert
 (>= l_0_0_1 0.0))
(assert
 (>= l_0_0_3 0.0))
(assert
 (>= l_0_0_6 0.0))
(assert
 (>= l_0_0_7 0.0))
(assert
 (>= l_0_0_9 0.0))
(assert
 (>= l_0_0_12 0.0))
(assert
 (let ((?x339 (- (- (* (* (- _a_0_) l_0_1_1) l_0_1_1) (* l_0_1_13 l_0_1_13)) (* (* 1.0 l_0_1_7) l_0_1_7))))
 (= (+ ?x339 2.0) 0.0)))
(assert
 (let ((?x348 (* l_0_1_7 l_0_1_7)))
 (let ((?x367 (* l_0_1_15 l_0_1_15)))
 (let ((?x365 (* l_0_1_14 l_0_1_14)))
 (let ((?x360 (- (* (- _a_0_) (+ (* l_0_1_2 l_0_1_2) (* l_0_1_3 l_0_1_3))) (* (* _a_2_ l_0_1_1) l_0_1_1))))
 (let ((?x368 (- (- (- ?x360 (* (* (* 2.0 _a_4_) l_0_1_1) l_0_1_2)) ?x365) ?x367)))
 (let ((?x375 (- (- (+ ?x368 (* (* 8.0 l_0_1_7) l_0_1_8)) ?x348) (* (* 1.0 l_0_1_8) l_0_1_8))))
 (= (- (- ?x375 (* (* 1.0 l_0_1_9) l_0_1_9)) (/ 1.0 5.0)) 0.0))))))))
(assert
 (let ((?x348 (* l_0_1_7 l_0_1_7)))
 (let ((?x435 (* 4.0 ?x348)))
 (let ((?x433 (* (* 2.0 l_0_1_7) l_0_1_8)))
 (let ((?x428 (- (* (* (* (- 2.0) _a_0_) l_0_1_1) l_0_1_2) (* (* _a_4_ l_0_1_1) l_0_1_1))))
 (let ((?x437 (- (+ (- (- ?x428 (* (* 2.0 l_0_1_13) l_0_1_14)) ?x433) ?x435) 1.0)))
 (= ?x437 0.0)))))))
(assert
 (let ((?x465 (* 2.0 l_0_1_10)))
 (let ((?x466 (* ?x465 l_0_1_7)))
 (let ((?x464 (- (* (* (* (- 2.0) _a_0_) l_0_1_1) l_0_1_4) (* (* _a_5_ l_0_1_1) l_0_1_1))))
 (= (- (- ?x464 ?x466) (* (* 2.0 l_0_1_13) l_0_1_16)) 0.0)))))
(assert
 (let ((?x514 (* (* 2.0 l_0_1_11) l_0_1_9)))
 (let ((?x465 (* 2.0 l_0_1_10)))
 (let ((?x511 (* ?x465 l_0_1_8)))
 (let ((?x497 (+ (* (* 2.0 l_0_1_2) l_0_1_4) (* (* 2.0 l_0_1_3) l_0_1_5))))
 (let ((?x331 (- _a_0_)))
 (let ((?x503 (- (- (* ?x331 ?x497) (* (* _a_1_ l_0_1_1) l_0_1_1)) (* (* (* 2.0 _a_4_) l_0_1_1) l_0_1_4))))
 (let ((?x510 (+ (- ?x503 (* (* (* 2.0 _a_5_) l_0_1_1) l_0_1_2)) (* (* 8.0 l_0_1_10) l_0_1_7))))
 (let ((?x521 (- (- (- (- ?x510 ?x511) ?x514) (* (* 2.0 l_0_1_14) l_0_1_16)) (* (* 2.0 l_0_1_15) l_0_1_17))))
 (= ?x521 0.0))))))))))
(assert
 (let ((?x348 (* l_0_1_7 l_0_1_7)))
 (let ((?x600 (* l_0_1_18 l_0_1_18)))
 (let ((?x598 (* l_0_1_17 l_0_1_17)))
 (let ((?x596 (* l_0_1_16 l_0_1_16)))
 (let ((?x579 (* l_0_1_6 l_0_1_6)))
 (let ((?x580 (+ (+ (* l_0_1_4 l_0_1_4) (* l_0_1_5 l_0_1_5)) ?x579)))
 (let ((?x331 (- _a_0_)))
 (let ((?x586 (- (- (* ?x331 ?x580) (* (* _a_3_ l_0_1_1) l_0_1_1)) (* (* (* 2.0 _a_5_) l_0_1_1) l_0_1_4))))
 (let ((?x592 (- (- ?x586 (* (* 1.0 l_0_1_10) l_0_1_10)) (* (* 1.0 l_0_1_11) l_0_1_11))))
 (let ((?x601 (- (- (- (- ?x592 (* (* 1.0 l_0_1_12) l_0_1_12)) ?x596) ?x598) ?x600)))
 (= (- ?x601 ?x348) 0.0))))))))))))
(assert
 (let ((?x465 (* 2.0 l_0_1_10)))
 (let ((?x466 (* ?x465 l_0_1_7)))
 (let ((?x497 (+ (* (* 2.0 l_0_1_2) l_0_1_4) (* (* 2.0 l_0_1_3) l_0_1_5))))
 (let ((?x653 (- (* (* (* (- 2.0) _a_1_) l_0_1_1) l_0_1_2) (* (* (* 2.0 _a_2_) l_0_1_1) l_0_1_4))))
 (let ((?x657 (- (- ?x653 (* _a_4_ ?x497)) (* _a_5_ (+ (* l_0_1_2 l_0_1_2) (* l_0_1_3 l_0_1_3))))))
 (let ((?x663 (+ (+ (- ?x657 ?x466) (* (* 8.0 l_0_1_10) l_0_1_8)) (* (* 8.0 l_0_1_11) l_0_1_9))))
 (= ?x663 0.0))))))))
(assert
 (let ((?x433 (* (* 2.0 l_0_1_7) l_0_1_8)))
 (let ((?x630 (* l_0_1_12 l_0_1_12)))
 (let ((?x723 (* 4.0 ?x630)))
 (let ((?x626 (* l_0_1_11 l_0_1_11)))
 (let ((?x721 (* 4.0 ?x626)))
 (let ((?x622 (* l_0_1_10 l_0_1_10)))
 (let ((?x719 (* 4.0 ?x622)))
 (let ((?x497 (+ (* (* 2.0 l_0_1_2) l_0_1_4) (* (* 2.0 l_0_1_3) l_0_1_5))))
 (let ((?x579 (* l_0_1_6 l_0_1_6)))
 (let ((?x580 (+ (+ (* l_0_1_4 l_0_1_4) (* l_0_1_5 l_0_1_5)) ?x579)))
 (let ((?x714 (- (* (* (* (- 2.0) _a_1_) l_0_1_1) l_0_1_4) (* (* (* 2.0 _a_3_) l_0_1_1) l_0_1_2))))
 (let ((?x724 (+ (+ (+ (- (- ?x714 (* _a_4_ ?x580)) (* _a_5_ ?x497)) ?x719) ?x721) ?x723)))
 (= (- ?x724 ?x433) 0.0))))))))))))))
(assert
 (let ((?x514 (* (* 2.0 l_0_1_11) l_0_1_9)))
 (let ((?x465 (* 2.0 l_0_1_10)))
 (let ((?x511 (* ?x465 l_0_1_8)))
 (let ((?x497 (+ (* (* 2.0 l_0_1_2) l_0_1_4) (* (* 2.0 l_0_1_3) l_0_1_5))))
 (let ((?x781 (- (* (- _a_1_) (+ (* l_0_1_2 l_0_1_2) (* l_0_1_3 l_0_1_3))) (* _a_2_ ?x497))))
 (= (- (- ?x781 ?x511) ?x514) 0.0)))))))
(assert
 (let ((?x412 (* l_0_1_9 l_0_1_9)))
 (let ((?x408 (* l_0_1_8 l_0_1_8)))
 (let ((?x630 (* l_0_1_12 l_0_1_12)))
 (let ((?x626 (* l_0_1_11 l_0_1_11)))
 (let ((?x622 (* l_0_1_10 l_0_1_10)))
 (let ((?x579 (* l_0_1_6 l_0_1_6)))
 (let ((?x580 (+ (+ (* l_0_1_4 l_0_1_4) (* l_0_1_5 l_0_1_5)) ?x579)))
 (let ((?x497 (+ (* (* 2.0 l_0_1_2) l_0_1_4) (* (* 2.0 l_0_1_3) l_0_1_5))))
 (let ((?x778 (- _a_1_)))
 (let ((?x818 (- (- (* ?x778 ?x497) (* _a_2_ ?x580)) (* _a_3_ (+ (* l_0_1_2 l_0_1_2) (* l_0_1_3 l_0_1_3))))))
 (= (- (- (- (- (- ?x818 ?x622) ?x626) ?x630) ?x408) ?x412) 0.0))))))))))))
(assert
 (let ((?x514 (* (* 2.0 l_0_1_11) l_0_1_9)))
 (let ((?x465 (* 2.0 l_0_1_10)))
 (let ((?x511 (* ?x465 l_0_1_8)))
 (let ((?x497 (+ (* (* 2.0 l_0_1_2) l_0_1_4) (* (* 2.0 l_0_1_3) l_0_1_5))))
 (let ((?x579 (* l_0_1_6 l_0_1_6)))
 (let ((?x580 (+ (+ (* l_0_1_4 l_0_1_4) (* l_0_1_5 l_0_1_5)) ?x579)))
 (let ((?x778 (- _a_1_)))
 (= (- (- (- (* ?x778 ?x580) (* _a_3_ ?x497)) ?x511) ?x514) 0.0)))))))))
(assert
 (let ((?x433 (* (* 2.0 l_0_1_7) l_0_1_8)))
 (let ((?x909 (- (* (* (* (- 2.0) _a_2_) l_0_1_1) l_0_1_2) (* _a_4_ (+ (* l_0_1_2 l_0_1_2) (* l_0_1_3 l_0_1_3))))))
 (let ((?x914 (+ (+ (- ?x909 ?x433) (* 4.0 (* l_0_1_8 l_0_1_8))) (* 4.0 (* l_0_1_9 l_0_1_9)))))
 (= ?x914 0.0)))))
(assert
 (let ((?x412 (* l_0_1_9 l_0_1_9)))
 (let ((?x408 (* l_0_1_8 l_0_1_8)))
 (let ((?x939 (- (* (- _a_2_) (+ (* l_0_1_2 l_0_1_2) (* l_0_1_3 l_0_1_3))) ?x408)))
 (= (- ?x939 ?x412) 0.0)))))
(assert
 (let ((?x465 (* 2.0 l_0_1_10)))
 (let ((?x466 (* ?x465 l_0_1_7)))
 (let ((?x579 (* l_0_1_6 l_0_1_6)))
 (let ((?x580 (+ (+ (* l_0_1_4 l_0_1_4) (* l_0_1_5 l_0_1_5)) ?x579)))
 (let ((?x959 (- (- (* (* (* (- 2.0) _a_3_) l_0_1_1) l_0_1_4) (* _a_5_ ?x580)) ?x466)))
 (= ?x959 0.0)))))))
(assert
 (let ((?x630 (* l_0_1_12 l_0_1_12)))
 (let ((?x626 (* l_0_1_11 l_0_1_11)))
 (let ((?x622 (* l_0_1_10 l_0_1_10)))
 (let ((?x579 (* l_0_1_6 l_0_1_6)))
 (let ((?x580 (+ (+ (* l_0_1_4 l_0_1_4) (* l_0_1_5 l_0_1_5)) ?x579)))
 (let ((?x983 (- _a_3_)))
 (= (- (- (- (* ?x983 ?x580) ?x622) ?x626) ?x630) 0.0))))))))
(assert
 (>= l_0_1_1 0.0))
(assert
 (>= l_0_1_3 0.0))
(assert
 (>= l_0_1_6 0.0))
(assert
 (>= l_0_1_7 0.0))
(assert
 (>= l_0_1_9 0.0))
(assert
 (>= l_0_1_12 0.0))
(assert
 (>= l_0_1_13 0.0))
(assert
 (>= l_0_1_15 0.0))
(assert
 (>= l_0_1_18 0.0))
(assert
 (let ((?x1017 (* l_0_2_13 l_0_2_13)))
 (let ((?x1021 (+ (- (+ (* (* (- _a_0_) l_0_2_1) l_0_2_1) _a_0_) ?x1017) (* 1.0 (* l_0_2_7 l_0_2_7)))))
 (= ?x1021 0.0))))
(assert
 (let ((?x1059 (* (* 2.0 l_0_2_11) l_0_2_9)))
 (let ((?x1055 (* 2.0 l_0_2_10)))
 (let ((?x1056 (* ?x1055 l_0_2_8)))
 (let ((?x1047 (* (/ 1.0 10.0) _a_4_)))
 (let ((?x1041 (* (/ 81.0 100.0) _a_1_)))
 (let ((?x1035 (+ (* (* 2.0 l_0_2_2) l_0_2_4) (* (* 2.0 l_0_2_3) l_0_2_5))))
 (let ((?x331 (- _a_0_)))
 (let ((?x1045 (- (+ (- (* ?x331 ?x1035) (* (* _a_1_ l_0_2_1) l_0_2_1)) ?x1041) (* (* (* 2.0 _a_4_) l_0_2_1) l_0_2_4))))
 (let ((?x1054 (- (- (- ?x1045 ?x1047) (* (* (* 2.0 _a_5_) l_0_2_1) l_0_2_2)) (* (* 8.0 l_0_2_10) l_0_2_7))))
 (let ((?x1066 (- (- (+ (+ ?x1054 ?x1056) ?x1059) (* (* 2.0 l_0_2_14) l_0_2_16)) (* (* 2.0 l_0_2_15) l_0_2_17))))
 (= ?x1066 0.0))))))))))))
(assert
 (let ((?x1150 (* (* 2.0 l_0_2_7) l_0_2_8)))
 (let ((?x1035 (+ (* (* 2.0 l_0_2_2) l_0_2_4) (* (* 2.0 l_0_2_3) l_0_2_5))))
 (let ((?x1134 (* l_0_2_6 l_0_2_6)))
 (let ((?x1135 (+ (+ (* l_0_2_4 l_0_2_4) (* l_0_2_5 l_0_2_5)) ?x1134)))
 (let ((?x1130 (- (- (* (* (* (- 2.0) _a_1_) l_0_2_1) l_0_2_4) (* (/ 9.0 100.0) _a_1_)) (* (* (* 2.0 _a_3_) l_0_2_1) l_0_2_2))))
 (let ((?x1142 (- (- (- ?x1130 (* _a_4_ ?x1135)) (* _a_5_ ?x1035)) (* (* 4.0 l_0_2_10) l_0_2_10))))
 (let ((?x1148 (- (- ?x1142 (* (* 4.0 l_0_2_11) l_0_2_11)) (* (* 4.0 l_0_2_12) l_0_2_12))))
 (= (+ ?x1148 ?x1150) 0.0)))))))))
(assert
 (let ((?x1019 (* l_0_2_7 l_0_2_7)))
 (let ((?x1235 (* l_0_2_15 l_0_2_15)))
 (let ((?x1233 (* l_0_2_14 l_0_2_14)))
 (let ((?x1229 (* (/ 81.0 100.0) _a_2_)))
 (let ((?x1228 (- (* (- _a_0_) (+ (* l_0_2_2 l_0_2_2) (* l_0_2_3 l_0_2_3))) (* (* _a_2_ l_0_2_1) l_0_2_1))))
 (let ((?x1234 (- (- (+ ?x1228 ?x1229) (* (* (* 2.0 _a_4_) l_0_2_1) l_0_2_2)) ?x1233)))
 (let ((?x1243 (+ (+ (- (- ?x1234 ?x1235) (* (* 8.0 l_0_2_7) l_0_2_8)) ?x1019) (* 1.0 (* l_0_2_8 l_0_2_8)))))
 (= (+ ?x1243 (* 1.0 (* l_0_2_9 l_0_2_9))) 0.0)))))))))
(assert
 (let ((?x1055 (* 2.0 l_0_2_10)))
 (let ((?x1290 (* ?x1055 l_0_2_7)))
 (let ((?x1035 (+ (* (* 2.0 l_0_2_2) l_0_2_4) (* (* 2.0 l_0_2_3) l_0_2_5))))
 (let ((?x1284 (* (/ 9.0 50.0) _a_2_)))
 (let ((?x1282 (- (* (* (* (- 2.0) _a_1_) l_0_2_1) l_0_2_2) (* (* (* 2.0 _a_2_) l_0_2_1) l_0_2_4))))
 (let ((?x1289 (- (- (- ?x1282 ?x1284) (* _a_4_ ?x1035)) (* _a_5_ (+ (* l_0_2_2 l_0_2_2) (* l_0_2_3 l_0_2_3))))))
 (let ((?x1296 (- (- (+ ?x1289 ?x1290) (* (* 8.0 l_0_2_10) l_0_2_8)) (* (* 8.0 l_0_2_11) l_0_2_9))))
 (= ?x1296 0.0)))))))))
(assert
 (let ((?x1244 (* l_0_2_9 l_0_2_9)))
 (let ((?x1241 (* l_0_2_8 l_0_2_8)))
 (let ((?x1211 (* l_0_2_12 l_0_2_12)))
 (let ((?x1205 (* l_0_2_11 l_0_2_11)))
 (let ((?x1199 (* l_0_2_10 l_0_2_10)))
 (let ((?x1361 (* (/ 1.0 100.0) _a_2_)))
 (let ((?x1134 (* l_0_2_6 l_0_2_6)))
 (let ((?x1135 (+ (+ (* l_0_2_4 l_0_2_4) (* l_0_2_5 l_0_2_5)) ?x1134)))
 (let ((?x1035 (+ (* (* 2.0 l_0_2_2) l_0_2_4) (* (* 2.0 l_0_2_3) l_0_2_5))))
 (let ((?x778 (- _a_1_)))
 (let ((?x1364 (- (+ (- (* ?x778 ?x1035) (* _a_2_ ?x1135)) ?x1361) (* _a_3_ (+ (* l_0_2_2 l_0_2_2) (* l_0_2_3 l_0_2_3))))))
 (= (+ (+ (+ (+ (+ ?x1364 ?x1199) ?x1205) ?x1211) ?x1241) ?x1244) 0.0)))))))))))))
(assert
 (let ((?x1019 (* l_0_2_7 l_0_2_7)))
 (let ((?x1425 (* l_0_2_18 l_0_2_18)))
 (let ((?x1423 (* l_0_2_17 l_0_2_17)))
 (let ((?x1421 (* l_0_2_16 l_0_2_16)))
 (let ((?x1411 (* (/ 81.0 100.0) _a_3_)))
 (let ((?x1134 (* l_0_2_6 l_0_2_6)))
 (let ((?x1135 (+ (+ (* l_0_2_4 l_0_2_4) (* l_0_2_5 l_0_2_5)) ?x1134)))
 (let ((?x331 (- _a_0_)))
 (let ((?x1414 (- (+ (- (* ?x331 ?x1135) (* (* _a_3_ l_0_2_1) l_0_2_1)) ?x1411) (* (* (* 2.0 _a_5_) l_0_2_1) l_0_2_4))))
 (let ((?x1418 (+ (+ ?x1414 (* 1.0 (* l_0_2_10 l_0_2_10))) (* 1.0 (* l_0_2_11 l_0_2_11)))))
 (let ((?x1426 (- (- (- (+ ?x1418 (* 1.0 (* l_0_2_12 l_0_2_12))) ?x1421) ?x1423) ?x1425)))
 (= (+ ?x1426 ?x1019) 0.0)))))))))))))
(assert
 (let ((?x1150 (* (* 2.0 l_0_2_7) l_0_2_8)))
 (let ((?x1466 (* (/ 9.0 10.0) _a_4_)))
 (let ((?x1464 (- (* (* (* (- 2.0) _a_0_) l_0_2_1) l_0_2_2) (* (* _a_4_ l_0_2_1) l_0_2_1))))
 (let ((?x1474 (- (+ (- (+ ?x1464 ?x1466) (* (* 2.0 l_0_2_13) l_0_2_14)) ?x1150) (* (* 4.0 l_0_2_7) l_0_2_7))))
 (= ?x1474 0.0))))))
(assert
 (let ((?x1055 (* 2.0 l_0_2_10)))
 (let ((?x1290 (* ?x1055 l_0_2_7)))
 (let ((?x1500 (* (/ 9.0 10.0) _a_5_)))
 (let ((?x1499 (- (* (* (* (- 2.0) _a_0_) l_0_2_1) l_0_2_4) (* (* _a_5_ l_0_2_1) l_0_2_1))))
 (= (- (+ (+ ?x1499 ?x1500) ?x1290) (* (* 2.0 l_0_2_13) l_0_2_16)) 0.0))))))
(assert
 (let ((?x1059 (* (* 2.0 l_0_2_11) l_0_2_9)))
 (let ((?x1055 (* 2.0 l_0_2_10)))
 (let ((?x1056 (* ?x1055 l_0_2_8)))
 (let ((?x1035 (+ (* (* 2.0 l_0_2_2) l_0_2_4) (* (* 2.0 l_0_2_3) l_0_2_5))))
 (let ((?x1523 (- (* (- _a_1_) (+ (* l_0_2_2 l_0_2_2) (* l_0_2_3 l_0_2_3))) (* _a_2_ ?x1035))))
 (= (+ (+ ?x1523 ?x1056) ?x1059) 0.0)))))))
(assert
 (let ((?x1059 (* (* 2.0 l_0_2_11) l_0_2_9)))
 (let ((?x1055 (* 2.0 l_0_2_10)))
 (let ((?x1056 (* ?x1055 l_0_2_8)))
 (let ((?x1035 (+ (* (* 2.0 l_0_2_2) l_0_2_4) (* (* 2.0 l_0_2_3) l_0_2_5))))
 (let ((?x1134 (* l_0_2_6 l_0_2_6)))
 (let ((?x1135 (+ (+ (* l_0_2_4 l_0_2_4) (* l_0_2_5 l_0_2_5)) ?x1134)))
 (let ((?x778 (- _a_1_)))
 (= (+ (+ (- (* ?x778 ?x1135) (* _a_3_ ?x1035)) ?x1056) ?x1059) 0.0)))))))))
(assert
 (let ((?x1150 (* (* 2.0 l_0_2_7) l_0_2_8)))
 (let ((?x1586 (- (* (* (* (- 2.0) _a_2_) l_0_2_1) l_0_2_2) (* _a_4_ (+ (* l_0_2_2 l_0_2_2) (* l_0_2_3 l_0_2_3))))))
 (let ((?x1593 (- (- (+ ?x1586 ?x1150) (* (* 4.0 l_0_2_8) l_0_2_8)) (* (* 4.0 l_0_2_9) l_0_2_9))))
 (= ?x1593 0.0)))))
(assert
 (let ((?x1244 (* l_0_2_9 l_0_2_9)))
 (let ((?x1241 (* l_0_2_8 l_0_2_8)))
 (let ((?x1622 (+ (* (- _a_2_) (+ (* l_0_2_2 l_0_2_2) (* l_0_2_3 l_0_2_3))) ?x1241)))
 (= (+ ?x1622 ?x1244) 0.0)))))
(assert
 (let ((?x1055 (* 2.0 l_0_2_10)))
 (let ((?x1290 (* ?x1055 l_0_2_7)))
 (let ((?x1134 (* l_0_2_6 l_0_2_6)))
 (let ((?x1135 (+ (+ (* l_0_2_4 l_0_2_4) (* l_0_2_5 l_0_2_5)) ?x1134)))
 (let ((?x1636 (+ (- (* (* (* (- 2.0) _a_3_) l_0_2_1) l_0_2_4) (* _a_5_ ?x1135)) ?x1290)))
 (= ?x1636 0.0)))))))
(assert
 (let ((?x1211 (* l_0_2_12 l_0_2_12)))
 (let ((?x1205 (* l_0_2_11 l_0_2_11)))
 (let ((?x1199 (* l_0_2_10 l_0_2_10)))
 (let ((?x1134 (* l_0_2_6 l_0_2_6)))
 (let ((?x1135 (+ (+ (* l_0_2_4 l_0_2_4) (* l_0_2_5 l_0_2_5)) ?x1134)))
 (let ((?x983 (- _a_3_)))
 (= (+ (+ (+ (* ?x983 ?x1135) ?x1199) ?x1205) ?x1211) 0.0))))))))
(assert
 (>= l_0_2_1 0.0))
(assert
 (>= l_0_2_3 0.0))
(assert
 (>= l_0_2_6 0.0))
(assert
 (>= l_0_2_7 0.0))
(assert
 (>= l_0_2_9 0.0))
(assert
 (>= l_0_2_12 0.0))
(assert
 (>= l_0_2_13 0.0))
(assert
 (>= l_0_2_15 0.0))
(assert
 (>= l_0_2_18 0.0))
(check-sat)
(get-model)